p edge 250 3128
e 0 15
e 0 33
e 0 34
e 0 58
e 0 61
e 0 74
e 0 106
e 0 121
e 0 127
e 0 158
e 0 159
e 0 189
e 0 214
e 0 219
e 0 228
e 0 235
e 0 238
e 0 249
e 1 16
e 1 46
e 1 51
e 1 57
e 1 65
e 1 66
e 1 102
e 1 106
e 1 111
e 1 122
e 1 142
e 1 150
e 1 154
e 1 165
e 1 181
e 1 202
e 1 203
e 1 216
e 1 233
e 2 5
e 2 13
e 2 19
e 2 47
e 2 77
e 2 104
e 2 108
e 2 120
e 2 127
e 2 133
e 2 136
e 2 150
e 2 153
e 2 163
e 2 165
e 2 173
e 2 176
e 2 179
e 2 180
e 2 182
e 2 185
e 2 194
e 2 199
e 2 209
e 2 216
e 2 221
e 2 223
e 2 228
e 2 238
e 3 26
e 3 27
e 3 37
e 3 38
e 3 39
e 3 55
e 3 57
e 3 68
e 3 72
e 3 91
e 3 94
e 3 96
e 3 116
e 3 117
e 3 122
e 3 174
e 3 178
e 3 195
e 3 202
e 3 203
e 3 210
e 3 224
e 3 241
e 3 243
e 4 57
e 4 83
e 4 88
e 4 92
e 4 94
e 4 95
e 4 102
e 4 107
e 4 110
e 4 128
e 4 140
e 4 146
e 4 156
e 4 174
e 4 188
e 4 192
e 4 195
e 4 201
e 4 213
e 4 221
e 5 21
e 5 29
e 5 35
e 5 41
e 5 42
e 5 43
e 5 46
e 5 50
e 5 74
e 5 78
e 5 79
e 5 87
e 5 93
e 5 95
e 5 101
e 5 120
e 5 125
e 5 133
e 5 137
e 5 142
e 5 148
e 5 191
e 5 207
e 5 224
e 5 226
e 5 227
e 5 228
e 5 232
e 5 233
e 6 27
e 6 52
e 6 70
e 6 76
e 6 84
e 6 87
e 6 90
e 6 99
e 6 100
e 6 140
e 6 161
e 6 175
e 6 184
e 6 188
e 6 199
e 6 218
e 6 223
e 6 244
e 7 8
e 7 13
e 7 40
e 7 48
e 7 61
e 7 69
e 7 73
e 7 78
e 7 98
e 7 108
e 7 114
e 7 123
e 7 124
e 7 125
e 7 134
e 7 140
e 7 149
e 7 164
e 7 182
e 7 204
e 7 218
e 7 235
e 7 238
e 7 239
e 7 241
e 8 21
e 8 52
e 8 70
e 8 80
e 8 88
e 8 95
e 8 101
e 8 110
e 8 111
e 8 141
e 8 157
e 8 161
e 8 180
e 8 187
e 8 196
e 8 210
e 8 212
e 8 215
e 8 222
e 8 231
e 8 233
e 8 239
e 8 242
e 8 247
e 9 21
e 9 39
e 9 42
e 9 43
e 9 45
e 9 55
e 9 58
e 9 59
e 9 98
e 9 104
e 9 122
e 9 141
e 9 144
e 9 147
e 9 151
e 9 157
e 9 168
e 9 173
e 9 177
e 9 186
e 9 203
e 9 204
e 9 208
e 9 211
e 9 221
e 9 225
e 9 227
e 9 230
e 9 245
e 10 23
e 10 36
e 10 63
e 10 64
e 10 87
e 10 101
e 10 127
e 10 173
e 10 177
e 10 179
e 10 182
e 10 189
e 10 193
e 10 206
e 10 218
e 10 222
e 10 225
e 10 226
e 10 249
e 11 12
e 11 17
e 11 44
e 11 80
e 11 83
e 11 84
e 11 94
e 11 105
e 11 107
e 11 118
e 11 122
e 11 126
e 11 127
e 11 128
e 11 134
e 11 136
e 11 139
e 11 155
e 11 159
e 11 170
e 11 173
e 11 193
e 11 195
e 11 196
e 11 209
e 11 216
e 11 218
e 11 229
e 11 248
e 11 249
e 12 19
e 12 30
e 12 70
e 12 74
e 12 76
e 12 82
e 12 99
e 12 108
e 12 126
e 12 131
e 12 140
e 12 144
e 12 150
e 12 161
e 12 237
e 12 241
e 13 15
e 13 20
e 13 21
e 13 29
e 13 37
e 13 38
e 13 45
e 13 47
e 13 62
e 13 71
e 13 73
e 13 83
e 13 132
e 13 140
e 13 165
e 13 169
e 13 170
e 13 186
e 13 190
e 13 198
e 13 201
e 13 208
e 13 211
e 13 215
e 13 241
e 13 243
e 14 27
e 14 40
e 14 51
e 14 53
e 14 62
e 14 66
e 14 79
e 14 85
e 14 89
e 14 156
e 14 196
e 14 204
e 14 206
e 14 218
e 14 227
e 14 228
e 14 249
e 15 72
e 15 90
e 15 118
e 15 136
e 15 161
e 15 174
e 15 183
e 15 188
e 15 192
e 15 204
e 15 222
e 15 226
e 15 230
e 15 232
e 15 245
e 16 24
e 16 31
e 16 35
e 16 45
e 16 53
e 16 61
e 16 74
e 16 76
e 16 99
e 16 123
e 16 133
e 16 154
e 16 155
e 16 163
e 16 173
e 16 178
e 16 180
e 16 188
e 16 193
e 16 198
e 16 211
e 16 221
e 16 242
e 16 245
e 17 21
e 17 36
e 17 45
e 17 56
e 17 81
e 17 89
e 17 96
e 17 108
e 17 110
e 17 118
e 17 134
e 17 155
e 17 156
e 17 171
e 17 188
e 17 192
e 17 204
e 17 209
e 17 230
e 17 233
e 17 239
e 17 243
e 17 249
e 18 21
e 18 40
e 18 49
e 18 53
e 18 62
e 18 64
e 18 76
e 18 83
e 18 89
e 18 93
e 18 103
e 18 116
e 18 128
e 18 130
e 18 140
e 18 147
e 18 158
e 18 159
e 18 169
e 18 173
e 18 191
e 18 194
e 18 227
e 18 235
e 18 247
e 19 29
e 19 30
e 19 35
e 19 62
e 19 66
e 19 68
e 19 69
e 19 89
e 19 90
e 19 93
e 19 109
e 19 111
e 19 128
e 19 130
e 19 137
e 19 157
e 19 163
e 19 181
e 19 186
e 19 198
e 19 207
e 19 209
e 19 211
e 19 218
e 19 231
e 20 27
e 20 30
e 20 55
e 20 78
e 20 87
e 20 107
e 20 109
e 20 114
e 20 116
e 20 129
e 20 135
e 20 144
e 20 161
e 20 163
e 20 169
e 20 183
e 20 213
e 20 219
e 20 224
e 20 225
e 20 227
e 20 234
e 20 238
e 21 37
e 21 40
e 21 51
e 21 54
e 21 58
e 21 59
e 21 73
e 21 105
e 21 118
e 21 129
e 21 132
e 21 140
e 21 141
e 21 148
e 21 149
e 21 164
e 21 175
e 21 181
e 21 183
e 21 193
e 21 210
e 21 212
e 21 213
e 21 215
e 21 223
e 21 225
e 21 228
e 21 229
e 21 238
e 21 245
e 22 48
e 22 49
e 22 58
e 22 63
e 22 73
e 22 78
e 22 89
e 22 92
e 22 94
e 22 116
e 22 152
e 22 158
e 22 165
e 22 179
e 22 188
e 22 189
e 22 211
e 22 221
e 22 222
e 22 224
e 22 228
e 23 31
e 23 41
e 23 43
e 23 47
e 23 53
e 23 66
e 23 69
e 23 70
e 23 87
e 23 93
e 23 104
e 23 109
e 23 116
e 23 125
e 23 137
e 23 195
e 23 206
e 23 213
e 23 227
e 23 228
e 23 249
e 24 25
e 24 28
e 24 30
e 24 48
e 24 49
e 24 55
e 24 58
e 24 59
e 24 68
e 24 72
e 24 77
e 24 83
e 24 87
e 24 91
e 24 96
e 24 132
e 24 143
e 24 164
e 24 168
e 24 170
e 24 184
e 24 187
e 24 198
e 24 217
e 24 227
e 24 239
e 25 36
e 25 40
e 25 50
e 25 57
e 25 59
e 25 61
e 25 62
e 25 68
e 25 95
e 25 110
e 25 124
e 25 128
e 25 140
e 25 144
e 25 160
e 25 161
e 25 192
e 25 204
e 25 205
e 25 208
e 25 215
e 25 246
e 26 29
e 26 40
e 26 60
e 26 80
e 26 94
e 26 129
e 26 141
e 26 150
e 26 156
e 26 186
e 26 187
e 26 211
e 26 213
e 26 221
e 26 232
e 27 36
e 27 40
e 27 51
e 27 61
e 27 65
e 27 73
e 27 83
e 27 106
e 27 126
e 27 133
e 27 134
e 27 142
e 27 144
e 27 151
e 27 158
e 27 166
e 27 168
e 27 172
e 27 177
e 27 178
e 27 180
e 27 196
e 27 203
e 27 219
e 27 223
e 27 230
e 27 231
e 27 232
e 27 238
e 27 239
e 28 41
e 28 45
e 28 68
e 28 79
e 28 88
e 28 89
e 28 97
e 28 103
e 28 121
e 28 129
e 28 134
e 28 137
e 28 140
e 28 156
e 28 170
e 28 175
e 28 192
e 28 199
e 28 211
e 28 219
e 28 221
e 28 236
e 29 54
e 29 55
e 29 58
e 29 78
e 29 98
e 29 115
e 29 126
e 29 132
e 29 133
e 29 141
e 29 146
e 29 148
e 29 158
e 29 180
e 29 201
e 29 202
e 29 207
e 29 209
e 29 210
e 30 37
e 30 43
e 30 48
e 30 55
e 30 78
e 30 85
e 30 86
e 30 89
e 30 91
e 30 112
e 30 125
e 30 128
e 30 143
e 30 148
e 30 166
e 30 171
e 30 179
e 30 185
e 30 197
e 30 200
e 30 212
e 31 37
e 31 48
e 31 52
e 31 67
e 31 74
e 31 89
e 31 90
e 31 123
e 31 127
e 31 129
e 31 134
e 31 142
e 31 145
e 31 152
e 31 183
e 31 194
e 31 231
e 31 245
e 32 41
e 32 57
e 32 66
e 32 76
e 32 77
e 32 79
e 32 80
e 32 81
e 32 94
e 32 101
e 32 102
e 32 104
e 32 105
e 32 113
e 32 130
e 32 134
e 32 155
e 32 170
e 32 171
e 32 187
e 32 189
e 32 201
e 32 213
e 32 228
e 32 246
e 33 46
e 33 52
e 33 62
e 33 82
e 33 84
e 33 89
e 33 98
e 33 101
e 33 104
e 33 121
e 33 126
e 33 150
e 33 166
e 33 168
e 33 174
e 33 195
e 33 196
e 33 199
e 33 200
e 33 203
e 33 207
e 33 218
e 33 244
e 34 43
e 34 46
e 34 56
e 34 62
e 34 64
e 34 67
e 34 98
e 34 130
e 34 152
e 34 156
e 34 184
e 34 187
e 34 190
e 34 197
e 34 219
e 34 223
e 34 242
e 34 243
e 34 248
e 35 56
e 35 58
e 35 79
e 35 87
e 35 88
e 35 97
e 35 98
e 35 99
e 35 109
e 35 113
e 35 118
e 35 122
e 35 129
e 35 130
e 35 131
e 35 133
e 35 174
e 35 193
e 35 195
e 35 198
e 35 206
e 35 221
e 35 230
e 35 247
e 36 46
e 36 55
e 36 58
e 36 60
e 36 65
e 36 76
e 36 80
e 36 86
e 36 90
e 36 104
e 36 112
e 36 126
e 36 129
e 36 137
e 36 144
e 36 151
e 36 158
e 36 167
e 36 169
e 36 192
e 36 195
e 36 203
e 36 205
e 36 207
e 36 221
e 36 228
e 36 231
e 36 236
e 36 240
e 36 241
e 36 247
e 37 43
e 37 63
e 37 66
e 37 101
e 37 107
e 37 119
e 37 121
e 37 139
e 37 144
e 37 159
e 37 161
e 37 204
e 37 213
e 37 216
e 37 220
e 38 65
e 38 73
e 38 74
e 38 83
e 38 98
e 38 102
e 38 108
e 38 122
e 38 124
e 38 145
e 38 146
e 38 155
e 38 158
e 38 186
e 38 197
e 38 198
e 38 200
e 38 229
e 39 45
e 39 60
e 39 68
e 39 72
e 39 75
e 39 112
e 39 117
e 39 125
e 39 128
e 39 147
e 39 148
e 39 159
e 39 165
e 39 184
e 39 186
e 39 187
e 39 192
e 39 207
e 39 210
e 39 216
e 39 222
e 39 239
e 39 249
e 40 79
e 40 83
e 40 94
e 40 106
e 40 111
e 40 122
e 40 143
e 40 147
e 40 172
e 40 183
e 40 195
e 40 211
e 40 214
e 40 222
e 40 226
e 40 228
e 40 249
e 41 43
e 41 48
e 41 55
e 41 62
e 41 66
e 41 80
e 41 86
e 41 98
e 41 100
e 41 124
e 41 141
e 41 145
e 41 157
e 41 159
e 41 165
e 41 174
e 41 176
e 41 179
e 41 185
e 41 191
e 41 211
e 41 249
e 42 47
e 42 50
e 42 54
e 42 97
e 42 120
e 42 134
e 42 138
e 42 145
e 42 169
e 42 173
e 42 181
e 42 185
e 42 196
e 42 211
e 42 214
e 42 221
e 42 225
e 42 231
e 42 233
e 42 244
e 42 247
e 43 46
e 43 54
e 43 58
e 43 61
e 43 62
e 43 87
e 43 88
e 43 101
e 43 116
e 43 117
e 43 122
e 43 134
e 43 139
e 43 146
e 43 168
e 43 172
e 43 194
e 43 219
e 43 224
e 43 238
e 43 249
e 44 52
e 44 57
e 44 67
e 44 77
e 44 84
e 44 88
e 44 94
e 44 97
e 44 112
e 44 124
e 44 126
e 44 138
e 44 147
e 44 148
e 44 150
e 44 152
e 44 164
e 44 178
e 44 212
e 44 213
e 44 221
e 45 46
e 45 57
e 45 72
e 45 73
e 45 81
e 45 98
e 45 103
e 45 121
e 45 135
e 45 139
e 45 172
e 45 180
e 45 182
e 45 183
e 45 189
e 45 193
e 45 208
e 45 233
e 45 234
e 45 239
e 45 245
e 46 61
e 46 68
e 46 72
e 46 79
e 46 83
e 46 94
e 46 95
e 46 136
e 46 152
e 46 154
e 46 157
e 46 177
e 46 179
e 46 180
e 46 185
e 46 197
e 46 206
e 46 208
e 46 209
e 46 216
e 46 219
e 46 228
e 46 246
e 47 75
e 47 77
e 47 86
e 47 88
e 47 101
e 47 102
e 47 140
e 47 147
e 47 148
e 47 157
e 47 159
e 47 160
e 47 163
e 47 175
e 47 196
e 47 197
e 47 231
e 48 51
e 48 52
e 48 76
e 48 78
e 48 88
e 48 92
e 48 99
e 48 103
e 48 105
e 48 116
e 48 126
e 48 138
e 48 140
e 48 147
e 48 152
e 48 157
e 48 176
e 48 182
e 48 184
e 48 195
e 48 208
e 48 214
e 48 216
e 48 239
e 48 244
e 49 59
e 49 60
e 49 110
e 49 121
e 49 131
e 49 133
e 49 134
e 49 144
e 49 172
e 49 183
e 49 191
e 49 225
e 49 229
e 50 55
e 50 67
e 50 68
e 50 79
e 50 100
e 50 114
e 50 123
e 50 124
e 50 132
e 50 133
e 50 173
e 50 175
e 50 176
e 50 198
e 50 208
e 50 218
e 50 222
e 50 229
e 50 233
e 50 240
e 50 247
e 51 73
e 51 92
e 51 100
e 51 106
e 51 107
e 51 115
e 51 129
e 51 146
e 51 151
e 51 153
e 51 172
e 51 174
e 51 176
e 51 197
e 51 220
e 51 222
e 51 231
e 51 239
e 51 241
e 51 246
e 51 247
e 51 248
e 52 66
e 52 67
e 52 105
e 52 106
e 52 111
e 52 133
e 52 136
e 52 137
e 52 146
e 52 148
e 52 149
e 52 178
e 52 197
e 52 201
e 52 210
e 52 226
e 53 67
e 53 72
e 53 79
e 53 91
e 53 98
e 53 118
e 53 121
e 53 126
e 53 134
e 53 138
e 53 143
e 53 151
e 53 165
e 53 189
e 53 199
e 53 212
e 53 216
e 53 222
e 53 231
e 54 68
e 54 93
e 54 96
e 54 111
e 54 120
e 54 152
e 54 163
e 54 184
e 54 190
e 54 212
e 54 216
e 54 232
e 54 244
e 54 245
e 54 246
e 55 57
e 55 72
e 55 82
e 55 108
e 55 133
e 55 146
e 55 154
e 55 155
e 55 158
e 55 161
e 55 167
e 55 177
e 55 179
e 55 186
e 55 187
e 55 202
e 55 205
e 55 207
e 55 211
e 55 222
e 55 230
e 55 236
e 56 65
e 56 94
e 56 106
e 56 117
e 56 135
e 56 141
e 56 144
e 56 175
e 56 177
e 56 194
e 56 196
e 56 199
e 56 200
e 56 214
e 56 219
e 56 220
e 56 222
e 56 228
e 56 236
e 56 237
e 56 240
e 56 242
e 56 245
e 56 248
e 57 65
e 57 68
e 57 69
e 57 77
e 57 85
e 57 86
e 57 90
e 57 111
e 57 114
e 57 142
e 57 143
e 57 154
e 57 159
e 57 165
e 57 192
e 57 210
e 57 223
e 57 243
e 58 62
e 58 80
e 58 83
e 58 88
e 58 89
e 58 93
e 58 94
e 58 103
e 58 108
e 58 112
e 58 115
e 58 116
e 58 118
e 58 121
e 58 159
e 58 168
e 58 174
e 58 181
e 58 187
e 58 196
e 58 209
e 58 225
e 58 226
e 58 229
e 58 231
e 58 237
e 58 243
e 58 244
e 59 63
e 59 67
e 59 87
e 59 92
e 59 116
e 59 135
e 59 140
e 59 161
e 59 163
e 59 165
e 59 177
e 59 186
e 59 189
e 59 194
e 59 200
e 59 204
e 60 106
e 60 129
e 60 156
e 60 160
e 60 170
e 60 175
e 60 220
e 60 226
e 60 227
e 61 81
e 61 84
e 61 90
e 61 116
e 61 127
e 61 129
e 61 130
e 61 132
e 61 135
e 61 136
e 61 162
e 61 167
e 61 187
e 61 190
e 61 196
e 61 204
e 61 236
e 62 63
e 62 91
e 62 123
e 62 138
e 62 142
e 62 143
e 62 146
e 62 147
e 62 152
e 62 171
e 62 174
e 62 182
e 62 184
e 62 185
e 62 192
e 62 223
e 62 239
e 62 242
e 62 247
e 62 248
e 63 72
e 63 93
e 63 94
e 63 123
e 63 125
e 63 135
e 63 142
e 63 149
e 63 154
e 63 157
e 63 168
e 63 169
e 63 178
e 63 183
e 63 214
e 63 221
e 63 223
e 63 239
e 63 246
e 63 247
e 64 76
e 64 79
e 64 82
e 64 85
e 64 97
e 64 104
e 64 107
e 64 111
e 64 134
e 64 146
e 64 159
e 64 165
e 64 166
e 64 176
e 64 186
e 64 193
e 64 197
e 64 221
e 64 235
e 64 238
e 65 69
e 65 83
e 65 85
e 65 87
e 65 96
e 65 99
e 65 101
e 65 120
e 65 134
e 65 151
e 65 163
e 65 178
e 65 190
e 65 225
e 65 232
e 65 248
e 66 68
e 66 70
e 66 80
e 66 93
e 66 109
e 66 113
e 66 119
e 66 124
e 66 132
e 66 149
e 66 161
e 66 183
e 66 190
e 66 199
e 66 202
e 66 213
e 66 221
e 66 223
e 66 225
e 66 239
e 66 244
e 67 68
e 67 69
e 67 106
e 67 108
e 67 116
e 67 118
e 67 132
e 67 137
e 67 143
e 67 146
e 67 153
e 67 187
e 67 191
e 67 193
e 67 201
e 67 211
e 67 214
e 67 222
e 67 241
e 67 249
e 68 77
e 68 86
e 68 87
e 68 93
e 68 94
e 68 97
e 68 98
e 68 101
e 68 104
e 68 113
e 68 120
e 68 131
e 68 139
e 68 140
e 68 157
e 68 158
e 68 182
e 68 198
e 68 206
e 68 209
e 68 243
e 69 79
e 69 98
e 69 106
e 69 110
e 69 138
e 69 149
e 69 161
e 69 166
e 69 168
e 69 170
e 69 177
e 69 180
e 69 186
e 69 198
e 69 210
e 69 226
e 69 229
e 69 233
e 69 243
e 70 75
e 70 77
e 70 80
e 70 98
e 70 160
e 70 220
e 70 235
e 70 239
e 71 79
e 71 82
e 71 85
e 71 93
e 71 104
e 71 112
e 71 113
e 71 124
e 71 128
e 71 142
e 71 144
e 71 155
e 71 169
e 71 174
e 71 197
e 71 211
e 71 229
e 71 236
e 71 239
e 71 243
e 71 248
e 72 108
e 72 124
e 72 125
e 72 131
e 72 133
e 72 154
e 72 161
e 72 162
e 72 163
e 72 166
e 72 173
e 72 179
e 72 180
e 72 197
e 72 232
e 72 244
e 72 248
e 73 91
e 73 99
e 73 106
e 73 114
e 73 125
e 73 138
e 73 145
e 73 162
e 73 164
e 73 168
e 73 173
e 73 174
e 73 183
e 73 194
e 73 203
e 73 210
e 73 228
e 73 229
e 73 230
e 73 232
e 74 84
e 74 96
e 74 97
e 74 109
e 74 123
e 74 124
e 74 130
e 74 137
e 74 142
e 74 189
e 74 217
e 74 221
e 74 225
e 74 227
e 75 79
e 75 83
e 75 87
e 75 88
e 75 92
e 75 117
e 75 126
e 75 134
e 75 140
e 75 144
e 75 150
e 75 153
e 75 168
e 75 173
e 75 177
e 75 183
e 75 187
e 75 188
e 75 190
e 75 195
e 75 197
e 75 202
e 75 210
e 75 233
e 75 237
e 76 89
e 76 100
e 76 112
e 76 122
e 76 155
e 76 167
e 76 192
e 76 201
e 76 209
e 76 215
e 76 219
e 76 231
e 76 234
e 76 235
e 76 236
e 76 238
e 77 80
e 77 87
e 77 107
e 77 117
e 77 119
e 77 128
e 77 137
e 77 145
e 77 169
e 77 170
e 77 186
e 77 197
e 77 203
e 77 208
e 77 210
e 77 211
e 77 226
e 77 239
e 78 96
e 78 102
e 78 104
e 78 106
e 78 109
e 78 115
e 78 131
e 78 133
e 78 134
e 78 158
e 78 160
e 78 169
e 78 170
e 78 171
e 78 173
e 78 180
e 78 181
e 78 208
e 78 213
e 78 245
e 79 90
e 79 92
e 79 102
e 79 110
e 79 121
e 79 123
e 79 134
e 79 137
e 79 143
e 79 157
e 79 164
e 79 183
e 79 199
e 79 209
e 79 210
e 79 212
e 79 213
e 79 215
e 79 237
e 79 241
e 80 94
e 80 145
e 80 148
e 80 152
e 80 160
e 80 173
e 80 176
e 80 192
e 80 193
e 80 195
e 80 196
e 80 203
e 80 211
e 80 247
e 81 82
e 81 94
e 81 108
e 81 117
e 81 118
e 81 125
e 81 130
e 81 135
e 81 158
e 81 165
e 81 180
e 81 199
e 81 215
e 81 216
e 81 222
e 81 229
e 81 236
e 81 237
e 82 113
e 82 119
e 82 120
e 82 127
e 82 129
e 82 136
e 82 171
e 82 175
e 82 177
e 82 180
e 82 184
e 82 186
e 82 194
e 82 199
e 82 200
e 82 206
e 82 210
e 82 222
e 82 227
e 82 246
e 83 108
e 83 112
e 83 113
e 83 143
e 83 144
e 83 154
e 83 170
e 83 192
e 83 195
e 83 201
e 83 216
e 83 234
e 83 243
e 84 90
e 84 96
e 84 99
e 84 101
e 84 115
e 84 117
e 84 153
e 84 180
e 84 190
e 84 193
e 84 195
e 84 205
e 84 209
e 84 226
e 84 240
e 84 248
e 84 249
e 85 87
e 85 97
e 85 112
e 85 116
e 85 138
e 85 144
e 85 146
e 85 147
e 85 151
e 85 159
e 85 162
e 85 165
e 85 175
e 85 186
e 85 189
e 85 192
e 85 195
e 85 201
e 85 215
e 85 220
e 85 228
e 85 239
e 85 248
e 86 88
e 86 89
e 86 95
e 86 111
e 86 124
e 86 133
e 86 155
e 86 169
e 86 188
e 86 193
e 86 199
e 86 205
e 86 208
e 87 91
e 87 121
e 87 123
e 87 134
e 87 135
e 87 136
e 87 137
e 87 145
e 87 148
e 87 172
e 87 178
e 87 183
e 87 186
e 87 189
e 87 193
e 87 197
e 87 198
e 87 201
e 87 212
e 87 220
e 87 248
e 88 93
e 88 100
e 88 101
e 88 109
e 88 120
e 88 124
e 88 127
e 88 153
e 88 156
e 88 172
e 88 173
e 88 181
e 88 185
e 88 200
e 88 205
e 88 211
e 88 222
e 89 129
e 89 134
e 89 139
e 89 144
e 89 145
e 89 202
e 89 215
e 89 229
e 89 231
e 89 242
e 89 245
e 90 102
e 90 112
e 90 137
e 90 145
e 90 155
e 90 168
e 90 170
e 90 171
e 90 181
e 90 184
e 90 188
e 90 201
e 90 226
e 90 248
e 91 96
e 91 111
e 91 115
e 91 130
e 91 144
e 91 147
e 91 163
e 91 168
e 91 171
e 91 179
e 91 219
e 91 237
e 91 240
e 92 96
e 92 107
e 92 112
e 92 133
e 92 145
e 92 155
e 92 161
e 92 177
e 92 178
e 92 181
e 92 195
e 92 198
e 92 209
e 92 218
e 92 221
e 92 227
e 92 231
e 92 234
e 92 238
e 92 242
e 93 95
e 93 115
e 93 118
e 93 121
e 93 122
e 93 136
e 93 155
e 93 161
e 93 174
e 93 184
e 93 220
e 93 229
e 93 231
e 93 239
e 94 95
e 94 106
e 94 137
e 94 139
e 94 147
e 94 150
e 94 163
e 94 172
e 94 192
e 94 222
e 94 232
e 94 233
e 94 247
e 95 99
e 95 101
e 95 104
e 95 105
e 95 128
e 95 129
e 95 134
e 95 160
e 95 176
e 95 177
e 95 188
e 95 207
e 95 214
e 95 219
e 95 226
e 95 228
e 95 246
e 96 101
e 96 104
e 96 121
e 96 122
e 96 128
e 96 150
e 96 152
e 96 165
e 96 166
e 96 168
e 96 181
e 96 185
e 96 196
e 96 201
e 96 209
e 96 215
e 96 222
e 96 227
e 96 237
e 96 249
e 97 124
e 97 140
e 97 144
e 97 160
e 97 163
e 97 169
e 97 174
e 97 179
e 97 193
e 97 200
e 97 202
e 97 221
e 97 235
e 98 110
e 98 143
e 98 152
e 98 164
e 98 177
e 98 184
e 98 190
e 98 195
e 98 196
e 98 208
e 98 230
e 98 244
e 99 100
e 99 136
e 99 140
e 99 143
e 99 146
e 99 149
e 99 150
e 99 157
e 99 161
e 99 171
e 99 185
e 99 186
e 99 224
e 99 227
e 99 238
e 99 249
e 100 111
e 100 118
e 100 132
e 100 137
e 100 141
e 100 151
e 100 152
e 100 158
e 100 160
e 100 169
e 100 171
e 100 195
e 100 207
e 100 208
e 100 215
e 100 218
e 100 222
e 100 245
e 100 247
e 101 106
e 101 127
e 101 131
e 101 133
e 101 137
e 101 167
e 101 171
e 101 175
e 101 176
e 101 216
e 101 224
e 101 230
e 101 235
e 101 238
e 101 242
e 101 247
e 101 248
e 102 116
e 102 119
e 102 126
e 102 132
e 102 135
e 102 146
e 102 180
e 102 182
e 102 192
e 102 194
e 102 197
e 102 206
e 102 209
e 102 232
e 103 117
e 103 142
e 103 153
e 103 155
e 103 162
e 103 166
e 103 168
e 103 178
e 103 183
e 103 201
e 103 213
e 103 222
e 103 223
e 103 230
e 103 239
e 104 123
e 104 127
e 104 136
e 104 137
e 104 146
e 104 150
e 104 180
e 104 203
e 104 218
e 104 242
e 104 247
e 104 249
e 105 109
e 105 132
e 105 137
e 105 139
e 105 141
e 105 147
e 105 177
e 105 200
e 105 205
e 105 213
e 105 216
e 105 221
e 105 223
e 105 248
e 106 107
e 106 111
e 106 121
e 106 126
e 106 136
e 106 141
e 106 146
e 106 148
e 106 151
e 106 164
e 106 173
e 106 194
e 106 196
e 106 207
e 106 210
e 106 213
e 106 219
e 106 239
e 106 241
e 106 246
e 106 249
e 107 114
e 107 136
e 107 146
e 107 184
e 107 195
e 107 208
e 107 219
e 107 224
e 107 227
e 107 232
e 107 234
e 107 241
e 108 115
e 108 119
e 108 136
e 108 190
e 108 193
e 108 206
e 108 216
e 108 222
e 108 231
e 108 235
e 108 241
e 108 244
e 109 158
e 109 168
e 109 183
e 109 187
e 109 199
e 109 225
e 109 228
e 109 229
e 109 232
e 109 240
e 109 247
e 109 248
e 110 111
e 110 114
e 110 137
e 110 188
e 110 192
e 110 200
e 110 201
e 110 211
e 110 221
e 110 246
e 111 137
e 111 140
e 111 141
e 111 148
e 111 158
e 111 163
e 111 169
e 111 199
e 111 211
e 111 237
e 112 121
e 112 126
e 112 128
e 112 135
e 112 145
e 112 146
e 112 150
e 112 156
e 112 159
e 112 172
e 112 173
e 112 195
e 112 198
e 112 202
e 112 206
e 112 208
e 112 211
e 112 213
e 112 227
e 112 229
e 112 237
e 112 238
e 112 243
e 113 130
e 113 134
e 113 146
e 113 151
e 113 164
e 113 173
e 113 190
e 113 199
e 113 208
e 114 137
e 114 146
e 114 148
e 114 156
e 114 167
e 114 172
e 114 183
e 114 189
e 114 207
e 114 212
e 114 222
e 114 225
e 114 232
e 114 237
e 114 245
e 114 248
e 115 117
e 115 120
e 115 131
e 115 140
e 115 144
e 115 147
e 115 152
e 115 168
e 115 173
e 115 180
e 115 186
e 115 187
e 115 190
e 115 196
e 115 199
e 115 201
e 115 204
e 115 239
e 116 152
e 116 155
e 116 159
e 116 163
e 116 171
e 116 175
e 116 192
e 116 194
e 116 216
e 116 230
e 116 237
e 116 240
e 116 242
e 117 130
e 117 140
e 117 155
e 117 176
e 117 187
e 117 196
e 117 210
e 117 215
e 117 216
e 117 218
e 117 222
e 117 244
e 117 248
e 118 127
e 118 138
e 118 148
e 118 150
e 118 155
e 118 159
e 118 169
e 118 180
e 118 187
e 118 198
e 118 212
e 118 216
e 118 232
e 118 234
e 118 249
e 119 126
e 119 135
e 119 137
e 119 163
e 119 190
e 119 200
e 119 207
e 119 213
e 119 234
e 119 246
e 120 148
e 120 150
e 120 178
e 120 180
e 120 184
e 120 221
e 120 228
e 120 241
e 120 243
e 121 131
e 121 132
e 121 154
e 121 158
e 121 162
e 121 209
e 121 210
e 121 233
e 122 135
e 122 144
e 122 161
e 122 162
e 122 178
e 122 200
e 122 224
e 122 230
e 122 235
e 122 242
e 123 131
e 123 142
e 123 144
e 123 151
e 123 181
e 123 247
e 123 248
e 124 154
e 124 164
e 124 168
e 124 175
e 124 202
e 124 212
e 124 228
e 124 229
e 124 233
e 125 130
e 125 131
e 125 137
e 125 145
e 125 146
e 125 152
e 125 154
e 125 180
e 125 207
e 125 220
e 125 225
e 125 237
e 125 240
e 126 129
e 126 130
e 126 153
e 126 163
e 126 166
e 126 170
e 126 175
e 126 177
e 126 197
e 126 229
e 126 237
e 127 149
e 127 161
e 127 163
e 127 180
e 127 186
e 127 190
e 127 216
e 127 222
e 127 237
e 128 147
e 128 160
e 128 165
e 128 181
e 128 182
e 128 194
e 128 214
e 128 227
e 129 130
e 129 132
e 129 134
e 129 149
e 129 157
e 129 167
e 129 171
e 129 181
e 129 189
e 129 195
e 129 201
e 129 211
e 129 212
e 129 213
e 129 215
e 129 222
e 129 249
e 130 133
e 130 136
e 130 156
e 130 165
e 130 179
e 130 180
e 130 187
e 130 188
e 130 198
e 130 220
e 130 240
e 130 243
e 131 134
e 131 146
e 131 148
e 131 160
e 131 169
e 131 173
e 131 174
e 131 190
e 131 196
e 131 200
e 131 204
e 131 212
e 131 216
e 131 224
e 131 233
e 131 238
e 131 239
e 131 244
e 132 147
e 132 162
e 132 164
e 132 174
e 132 183
e 132 185
e 132 186
e 132 190
e 132 193
e 132 202
e 132 205
e 132 211
e 132 222
e 132 241
e 132 245
e 133 148
e 133 171
e 133 191
e 133 209
e 133 224
e 134 136
e 134 137
e 134 155
e 134 157
e 134 169
e 134 177
e 134 180
e 134 183
e 134 217
e 135 147
e 135 183
e 135 201
e 135 202
e 135 239
e 136 138
e 136 147
e 136 171
e 136 177
e 136 204
e 136 207
e 136 212
e 136 216
e 136 220
e 136 221
e 137 148
e 137 162
e 137 181
e 137 185
e 137 191
e 137 193
e 137 199
e 137 203
e 137 233
e 137 241
e 137 247
e 137 248
e 138 143
e 138 158
e 138 164
e 138 167
e 138 171
e 138 181
e 138 191
e 138 196
e 138 197
e 138 199
e 138 224
e 138 232
e 138 237
e 138 248
e 139 148
e 139 162
e 139 183
e 139 195
e 139 198
e 139 206
e 139 213
e 139 219
e 139 225
e 139 239
e 139 240
e 140 141
e 140 146
e 140 147
e 140 157
e 140 158
e 140 160
e 140 166
e 140 173
e 140 187
e 140 194
e 140 204
e 140 205
e 140 226
e 140 228
e 140 236
e 140 238
e 141 153
e 141 163
e 141 183
e 141 187
e 141 197
e 141 221
e 141 225
e 141 246
e 142 143
e 142 146
e 142 147
e 142 148
e 142 150
e 142 153
e 142 158
e 142 161
e 142 167
e 142 172
e 142 173
e 142 174
e 142 185
e 142 197
e 142 201
e 142 208
e 142 215
e 142 219
e 142 221
e 142 230
e 143 154
e 143 165
e 143 175
e 143 179
e 143 191
e 143 207
e 143 216
e 143 217
e 143 223
e 143 240
e 143 244
e 144 161
e 144 177
e 144 183
e 144 200
e 144 222
e 144 224
e 144 242
e 145 159
e 145 163
e 145 175
e 145 176
e 145 178
e 145 183
e 145 196
e 145 222
e 145 244
e 146 149
e 146 152
e 146 176
e 146 181
e 146 185
e 146 188
e 146 200
e 146 204
e 146 220
e 146 236
e 147 153
e 147 183
e 147 192
e 147 194
e 147 196
e 147 198
e 147 202
e 147 203
e 147 206
e 147 215
e 147 216
e 147 224
e 147 231
e 147 235
e 147 242
e 148 149
e 148 156
e 148 179
e 148 184
e 148 201
e 148 234
e 148 238
e 148 239
e 148 240
e 148 247
e 149 153
e 149 160
e 149 169
e 149 180
e 149 181
e 149 182
e 149 210
e 149 211
e 149 233
e 150 203
e 150 241
e 151 163
e 151 180
e 151 192
e 151 195
e 151 203
e 151 209
e 151 218
e 151 224
e 151 244
e 152 155
e 152 167
e 152 168
e 152 220
e 152 227
e 152 231
e 152 237
e 152 242
e 153 157
e 153 161
e 153 164
e 153 178
e 153 185
e 153 195
e 153 199
e 153 201
e 153 202
e 153 210
e 153 215
e 153 216
e 153 217
e 153 233
e 153 239
e 153 246
e 154 163
e 154 169
e 154 175
e 154 177
e 154 195
e 154 200
e 154 210
e 154 214
e 154 223
e 154 234
e 154 247
e 155 165
e 155 168
e 155 175
e 155 189
e 155 190
e 155 197
e 155 204
e 155 208
e 155 218
e 155 229
e 155 241
e 155 247
e 156 160
e 156 162
e 156 183
e 156 197
e 156 206
e 156 209
e 156 228
e 156 231
e 156 244
e 156 246
e 157 196
e 157 200
e 157 209
e 157 210
e 157 211
e 157 223
e 157 238
e 158 202
e 158 207
e 158 213
e 158 214
e 158 216
e 158 221
e 158 222
e 158 240
e 158 244
e 158 246
e 159 164
e 159 165
e 159 175
e 159 183
e 159 198
e 159 205
e 159 215
e 159 220
e 160 181
e 160 184
e 160 185
e 160 194
e 160 210
e 160 219
e 160 229
e 161 166
e 161 169
e 161 183
e 161 190
e 161 199
e 161 222
e 162 168
e 162 171
e 162 177
e 162 179
e 162 187
e 162 192
e 162 214
e 162 219
e 162 236
e 163 179
e 163 186
e 163 193
e 163 203
e 163 208
e 163 210
e 163 214
e 163 218
e 163 221
e 163 227
e 163 232
e 163 239
e 163 249
e 164 214
e 164 220
e 164 225
e 164 227
e 164 230
e 164 249
e 165 168
e 165 172
e 165 190
e 165 207
e 165 208
e 165 212
e 165 235
e 166 173
e 166 204
e 166 205
e 166 239
e 166 244
e 166 247
e 167 178
e 167 186
e 167 188
e 167 190
e 167 194
e 167 232
e 167 236
e 167 238
e 167 243
e 168 169
e 168 187
e 168 189
e 168 191
e 168 211
e 168 214
e 168 239
e 168 245
e 169 172
e 169 180
e 169 188
e 169 205
e 169 230
e 169 234
e 169 237
e 169 244
e 170 179
e 170 180
e 170 195
e 170 216
e 170 219
e 170 227
e 170 241
e 170 242
e 170 244
e 171 172
e 171 206
e 171 212
e 171 214
e 171 223
e 171 241
e 172 176
e 172 186
e 172 199
e 172 212
e 172 214
e 172 219
e 172 221
e 172 240
e 173 178
e 173 193
e 173 199
e 173 204
e 173 223
e 173 238
e 173 242
e 173 247
e 173 248
e 174 178
e 174 227
e 174 233
e 174 237
e 174 243
e 175 195
e 175 202
e 175 209
e 175 215
e 175 217
e 175 219
e 176 180
e 176 185
e 176 189
e 176 198
e 176 199
e 176 207
e 176 211
e 176 231
e 176 233
e 176 235
e 176 243
e 176 245
e 177 198
e 177 202
e 177 207
e 177 213
e 177 223
e 177 232
e 177 235
e 177 248
e 178 182
e 178 185
e 178 192
e 178 194
e 178 195
e 178 197
e 178 203
e 178 217
e 178 235
e 179 182
e 179 186
e 179 187
e 179 214
e 179 223
e 179 229
e 180 191
e 180 192
e 180 205
e 180 208
e 180 213
e 180 214
e 180 216
e 180 227
e 180 230
e 181 189
e 181 195
e 181 199
e 181 202
e 181 218
e 181 234
e 181 235
e 181 237
e 181 245
e 182 186
e 182 197
e 182 198
e 182 214
e 182 215
e 182 224
e 182 249
e 183 192
e 183 202
e 183 204
e 183 208
e 183 211
e 183 217
e 183 218
e 183 221
e 183 222
e 183 235
e 183 237
e 183 248
e 184 186
e 184 188
e 184 204
e 184 221
e 184 248
e 185 193
e 185 195
e 185 196
e 185 213
e 185 219
e 185 225
e 185 233
e 185 234
e 185 235
e 185 248
e 186 205
e 186 211
e 186 213
e 186 217
e 186 222
e 186 241
e 186 244
e 187 197
e 187 202
e 187 203
e 187 209
e 187 220
e 187 230
e 187 241
e 188 191
e 188 195
e 188 212
e 188 217
e 188 220
e 188 226
e 188 227
e 188 233
e 188 237
e 189 193
e 189 205
e 189 206
e 189 220
e 189 242
e 190 196
e 190 201
e 190 211
e 190 245
e 190 249
e 191 202
e 191 206
e 191 226
e 191 227
e 191 233
e 191 249
e 192 193
e 192 201
e 192 212
e 192 215
e 192 216
e 192 218
e 192 229
e 192 238
e 192 240
e 193 195
e 193 196
e 193 208
e 193 214
e 193 225
e 193 226
e 194 198
e 194 200
e 194 204
e 194 226
e 194 227
e 194 229
e 194 235
e 194 240
e 194 242
e 194 243
e 195 201
e 195 216
e 195 217
e 195 226
e 195 243
e 195 246
e 195 248
e 196 223
e 196 230
e 196 238
e 196 245
e 197 200
e 197 202
e 197 212
e 197 219
e 197 226
e 197 231
e 197 241
e 197 244
e 197 246
e 198 208
e 198 209
e 198 214
e 198 241
e 199 206
e 199 218
e 199 220
e 199 228
e 200 216
e 200 234
e 200 248
e 201 202
e 201 208
e 201 213
e 201 221
e 201 222
e 201 223
e 201 231
e 201 237
e 201 242
e 201 245
e 201 246
e 202 205
e 202 221
e 202 223
e 202 229
e 202 232
e 202 236
e 202 239
e 202 245
e 203 228
e 203 232
e 203 235
e 203 244
e 203 246
e 204 206
e 204 208
e 204 225
e 204 226
e 204 229
e 204 233
e 204 239
e 204 241
e 204 244
e 204 247
e 205 233
e 206 208
e 206 239
e 206 242
e 206 247
e 207 220
e 207 226
e 207 247
e 208 210
e 208 211
e 209 227
e 210 232
e 210 234
e 210 236
e 210 247
e 211 215
e 211 219
e 211 237
e 211 244
e 212 215
e 213 215
e 213 223
e 213 224
e 213 228
e 213 242
e 214 225
e 214 247
e 214 249
e 215 216
e 215 235
e 215 238
e 215 243
e 216 219
e 216 231
e 216 234
e 216 242
e 217 218
e 217 227
e 217 231
e 217 238
e 218 226
e 218 236
e 218 243
e 218 246
e 219 220
e 219 226
e 219 233
e 219 240
e 219 248
e 220 244
e 220 246
e 221 223
e 221 229
e 221 232
e 221 243
e 222 223
e 222 230
e 222 248
e 222 249
e 223 235
e 224 245
e 224 247
e 225 226
e 226 228
e 227 243
e 227 246
e 227 248
e 228 230
e 228 236
e 229 237
e 229 243
e 229 249
e 230 233
e 230 244
e 230 249
e 231 239
e 232 240
e 232 245
e 232 247
e 233 238
e 235 242
e 235 248
e 236 237
e 236 246
e 237 240
e 237 243
e 237 244
e 238 239
e 238 249
e 239 242
e 239 249
e 240 245
e 240 246
e 242 243
e 242 245
e 243 244
e 243 247
e 243 248
e 243 249
e 244 246
e 244 248
